1 1 4 4 2 3 4 5
1 1 5 4 2 3 4 5 6
1 1 2 1 6 2
1 1 2 1 6 3
1 1 2 1 6 4
1 1 2 1 6 5
1 1 2 0 3 2
1 1 3 0 9 3 2
1 1 2 2 2 9
1 1 2 2 3 9
1 1 2 0 4 2
1 1 3 0 12 4 2
1 1 2 2 2 12
1 1 2 2 4 12
1 1 2 0 5 2
1 1 3 0 15 5 2
1 1 2 2 2 15
1 1 2 2 5 15
1 1 2 0 4 3
1 1 3 0 18 4 3
1 1 2 2 3 18
1 1 2 2 4 18
1 1 2 0 5 3
1 1 3 0 21 5 3
1 1 2 2 3 21
1 1 2 2 5 21
1 1 2 0 5 4
1 1 3 0 24 5 4
1 1 2 2 4 24
1 1 2 2 5 24
1 1 4 4 25 26 27 28
1 1 5 4 25 26 27 28 29
1 1 2 1 29 25
1 1 2 1 29 26
1 1 2 1 29 27
1 1 2 1 29 28
1 1 2 0 26 25
1 1 3 0 32 26 25
1 1 2 2 25 32
1 1 2 2 26 32
1 1 2 0 27 25
1 1 3 0 35 27 25
1 1 2 2 25 35
1 1 2 2 27 35
1 1 2 0 28 25
1 1 3 0 38 28 25
1 1 2 2 25 38
1 1 2 2 28 38
1 1 2 0 27 26
1 1 3 0 41 27 26
1 1 2 2 26 41
1 1 2 2 27 41
1 1 2 0 28 26
1 1 3 0 44 28 26
1 1 2 2 26 44
1 1 2 2 28 44
1 1 2 0 28 27
1 1 3 0 47 28 27
1 1 2 2 27 47
1 1 2 2 28 47
1 1 4 4 48 49 50 51
1 1 5 4 48 49 50 51 52
1 1 2 1 52 48
1 1 2 1 52 49
1 1 2 1 52 50
1 1 2 1 52 51
1 1 2 0 49 48
1 1 3 0 55 49 48
1 1 2 2 48 55
1 1 2 2 49 55
1 1 2 0 50 48
1 1 3 0 58 50 48
1 1 2 2 48 58
1 1 2 2 50 58
1 1 2 0 51 48
1 1 3 0 61 51 48
1 1 2 2 48 61
1 1 2 2 51 61
1 1 2 0 50 49
1 1 3 0 64 50 49
1 1 2 2 49 64
1 1 2 2 50 64
1 1 2 0 51 49
1 1 3 0 67 51 49
1 1 2 2 49 67
1 1 2 2 51 67
1 1 2 0 51 50
1 1 3 0 70 51 50
1 1 2 2 50 70
1 1 2 2 51 70
1 1 4 4 71 72 73 74
1 1 5 4 71 72 73 74 75
1 1 2 1 75 71
1 1 2 1 75 72
1 1 2 1 75 73
1 1 2 1 75 74
1 1 2 0 72 71
1 1 3 0 78 72 71
1 1 2 2 71 78
1 1 2 2 72 78
1 1 2 0 73 71
1 1 3 0 81 73 71
1 1 2 2 71 81
1 1 2 2 73 81
1 1 2 0 74 71
1 1 3 0 84 74 71
1 1 2 2 71 84
1 1 2 2 74 84
1 1 2 0 73 72
1 1 3 0 87 73 72
1 1 2 2 72 87
1 1 2 2 73 87
1 1 2 0 74 72
1 1 3 0 90 74 72
1 1 2 2 72 90
1 1 2 2 74 90
1 1 2 0 74 73
1 1 3 0 93 74 73
1 1 2 2 73 93
1 1 2 2 74 93
1 1 4 4 94 95 96 97
1 1 5 4 94 95 96 97 98
1 1 2 1 98 94
1 1 2 1 98 95
1 1 2 1 98 96
1 1 2 1 98 97
1 1 2 0 95 94
1 1 3 0 101 95 94
1 1 2 2 94 101
1 1 2 2 95 101
1 1 2 0 96 94
1 1 3 0 104 96 94
1 1 2 2 94 104
1 1 2 2 96 104
1 1 2 0 97 94
1 1 3 0 107 97 94
1 1 2 2 94 107
1 1 2 2 97 107
1 1 2 0 96 95
1 1 3 0 110 96 95
1 1 2 2 95 110
1 1 2 2 96 110
1 1 2 0 97 95
1 1 3 0 113 97 95
1 1 2 2 95 113
1 1 2 2 97 113
1 1 2 0 97 96
1 1 3 0 116 97 96
1 1 2 2 96 116
1 1 2 2 97 116
1 1 4 4 117 118 119 120
1 1 5 4 117 118 119 120 121
1 1 2 1 121 117
1 1 2 1 121 118
1 1 2 1 121 119
1 1 2 1 121 120
1 1 2 0 118 117
1 1 3 0 124 118 117
1 1 2 2 117 124
1 1 2 2 118 124
1 1 2 0 119 117
1 1 3 0 127 119 117
1 1 2 2 117 127
1 1 2 2 119 127
1 1 2 0 120 117
1 1 3 0 130 120 117
1 1 2 2 117 130
1 1 2 2 120 130
1 1 2 0 119 118
1 1 3 0 133 119 118
1 1 2 2 118 133
1 1 2 2 119 133
1 1 2 0 120 118
1 1 3 0 136 120 118
1 1 2 2 118 136
1 1 2 2 120 136
1 1 2 0 120 119
1 1 3 0 139 120 119
1 1 2 2 119 139
1 1 2 2 120 139
1 1 4 4 140 141 142 143
1 1 5 4 140 141 142 143 144
1 1 2 1 144 140
1 1 2 1 144 141
1 1 2 1 144 142
1 1 2 1 144 143
1 1 2 0 141 140
1 1 3 0 147 141 140
1 1 2 2 140 147
1 1 2 2 141 147
1 1 2 0 142 140
1 1 3 0 150 142 140
1 1 2 2 140 150
1 1 2 2 142 150
1 1 2 0 143 140
1 1 3 0 153 143 140
1 1 2 2 140 153
1 1 2 2 143 153
1 1 2 0 142 141
1 1 3 0 156 142 141
1 1 2 2 141 156
1 1 2 2 142 156
1 1 2 0 143 141
1 1 3 0 159 143 141
1 1 2 2 141 159
1 1 2 2 143 159
1 1 2 0 143 142
1 1 3 0 162 143 142
1 1 2 2 142 162
1 1 2 2 143 162
1 1 4 4 163 164 165 166
1 1 5 4 163 164 165 166 167
1 1 2 1 167 163
1 1 2 1 167 164
1 1 2 1 167 165
1 1 2 1 167 166
1 1 2 0 164 163
1 1 3 0 170 164 163
1 1 2 2 163 170
1 1 2 2 164 170
1 1 2 0 165 163
1 1 3 0 173 165 163
1 1 2 2 163 173
1 1 2 2 165 173
1 1 2 0 166 163
1 1 3 0 176 166 163
1 1 2 2 163 176
1 1 2 2 166 176
1 1 2 0 165 164
1 1 3 0 179 165 164
1 1 2 2 164 179
1 1 2 2 165 179
1 1 2 0 166 164
1 1 3 0 182 166 164
1 1 2 2 164 182
1 1 2 2 166 182
1 1 2 0 166 165
1 1 3 0 185 166 165
1 1 2 2 165 185
1 1 2 2 166 185
1 1 4 4 186 187 188 189
1 1 5 4 186 187 188 189 190
1 1 2 1 190 186
1 1 2 1 190 187
1 1 2 1 190 188
1 1 2 1 190 189
1 1 2 0 187 186
1 1 3 0 193 187 186
1 1 2 2 186 193
1 1 2 2 187 193
1 1 2 0 188 186
1 1 3 0 196 188 186
1 1 2 2 186 196
1 1 2 2 188 196
1 1 2 0 189 186
1 1 3 0 199 189 186
1 1 2 2 186 199
1 1 2 2 189 199
1 1 2 0 188 187
1 1 3 0 202 188 187
1 1 2 2 187 202
1 1 2 2 188 202
1 1 2 0 189 187
1 1 3 0 205 189 187
1 1 2 2 187 205
1 1 2 2 189 205
1 1 2 0 189 188
1 1 3 0 208 189 188
1 1 2 2 188 208
1 1 2 2 189 208
1 1 4 4 209 210 211 212
1 1 5 4 209 210 211 212 213
1 1 2 1 213 209
1 1 2 1 213 210
1 1 2 1 213 211
1 1 2 1 213 212
1 1 2 0 210 209
1 1 3 0 216 210 209
1 1 2 2 209 216
1 1 2 2 210 216
1 1 2 0 211 209
1 1 3 0 219 211 209
1 1 2 2 209 219
1 1 2 2 211 219
1 1 2 0 212 209
1 1 3 0 222 212 209
1 1 2 2 209 222
1 1 2 2 212 222
1 1 2 0 211 210
1 1 3 0 225 211 210
1 1 2 2 210 225
1 1 2 2 211 225
1 1 2 0 212 210
1 1 3 0 228 212 210
1 1 2 2 210 228
1 1 2 2 212 228
1 1 2 0 212 211
1 1 3 0 231 212 211
1 1 2 2 211 231
1 1 2 2 212 231
1 1 4 4 232 233 234 235
1 1 5 4 232 233 234 235 236
1 1 2 1 236 232
1 1 2 1 236 233
1 1 2 1 236 234
1 1 2 1 236 235
1 1 2 0 233 232
1 1 3 0 239 233 232
1 1 2 2 232 239
1 1 2 2 233 239
1 1 2 0 234 232
1 1 3 0 242 234 232
1 1 2 2 232 242
1 1 2 2 234 242
1 1 2 0 235 232
1 1 3 0 245 235 232
1 1 2 2 232 245
1 1 2 2 235 245
1 1 2 0 234 233
1 1 3 0 248 234 233
1 1 2 2 233 248
1 1 2 2 234 248
1 1 2 0 235 233
1 1 3 0 251 235 233
1 1 2 2 233 251
1 1 2 2 235 251
1 1 2 0 235 234
1 1 3 0 254 235 234
1 1 2 2 234 254
1 1 2 2 235 254
1 1 4 4 255 256 257 258
1 1 5 4 255 256 257 258 259
1 1 2 1 259 255
1 1 2 1 259 256
1 1 2 1 259 257
1 1 2 1 259 258
1 1 2 0 256 255
1 1 3 0 262 256 255
1 1 2 2 255 262
1 1 2 2 256 262
1 1 2 0 257 255
1 1 3 0 265 257 255
1 1 2 2 255 265
1 1 2 2 257 265
1 1 2 0 258 255
1 1 3 0 268 258 255
1 1 2 2 255 268
1 1 2 2 258 268
1 1 2 0 257 256
1 1 3 0 271 257 256
1 1 2 2 256 271
1 1 2 2 257 271
1 1 2 0 258 256
1 1 3 0 274 258 256
1 1 2 2 256 274
1 1 2 2 258 274
1 1 2 0 258 257
1 1 3 0 277 258 257
1 1 2 2 257 277
1 1 2 2 258 277
1 1 4 4 278 279 280 281
1 1 5 4 278 279 280 281 282
1 1 2 1 282 278
1 1 2 1 282 279
1 1 2 1 282 280
1 1 2 1 282 281
1 1 2 0 279 278
1 1 3 0 285 279 278
1 1 2 2 278 285
1 1 2 2 279 285
1 1 2 0 280 278
1 1 3 0 288 280 278
1 1 2 2 278 288
1 1 2 2 280 288
1 1 2 0 281 278
1 1 3 0 291 281 278
1 1 2 2 278 291
1 1 2 2 281 291
1 1 2 0 280 279
1 1 3 0 294 280 279
1 1 2 2 279 294
1 1 2 2 280 294
1 1 2 0 281 279
1 1 3 0 297 281 279
1 1 2 2 279 297
1 1 2 2 281 297
1 1 2 0 281 280
1 1 3 0 300 281 280
1 1 2 2 280 300
1 1 2 2 281 300
1 1 4 4 301 302 303 304
1 1 5 4 301 302 303 304 305
1 1 2 1 305 301
1 1 2 1 305 302
1 1 2 1 305 303
1 1 2 1 305 304
1 1 2 0 302 301
1 1 3 0 308 302 301
1 1 2 2 301 308
1 1 2 2 302 308
1 1 2 0 303 301
1 1 3 0 311 303 301
1 1 2 2 301 311
1 1 2 2 303 311
1 1 2 0 304 301
1 1 3 0 314 304 301
1 1 2 2 301 314
1 1 2 2 304 314
1 1 2 0 303 302
1 1 3 0 317 303 302
1 1 2 2 302 317
1 1 2 2 303 317
1 1 2 0 304 302
1 1 3 0 320 304 302
1 1 2 2 302 320
1 1 2 2 304 320
1 1 2 0 304 303
1 1 3 0 323 304 303
1 1 2 2 303 323
1 1 2 2 304 323
1 1 4 4 324 325 326 327
1 1 5 4 324 325 326 327 328
1 1 2 1 328 324
1 1 2 1 328 325
1 1 2 1 328 326
1 1 2 1 328 327
1 1 2 0 325 324
1 1 3 0 331 325 324
1 1 2 2 324 331
1 1 2 2 325 331
1 1 2 0 326 324
1 1 3 0 334 326 324
1 1 2 2 324 334
1 1 2 2 326 334
1 1 2 0 327 324
1 1 3 0 337 327 324
1 1 2 2 324 337
1 1 2 2 327 337
1 1 2 0 326 325
1 1 3 0 340 326 325
1 1 2 2 325 340
1 1 2 2 326 340
1 1 2 0 327 325
1 1 3 0 343 327 325
1 1 2 2 325 343
1 1 2 2 327 343
1 1 2 0 327 326
1 1 3 0 346 327 326
1 1 2 2 326 346
1 1 2 2 327 346
1 1 4 4 347 348 349 350
1 1 5 4 347 348 349 350 351
1 1 2 1 351 347
1 1 2 1 351 348
1 1 2 1 351 349
1 1 2 1 351 350
1 1 2 0 348 347
1 1 3 0 354 348 347
1 1 2 2 347 354
1 1 2 2 348 354
1 1 2 0 349 347
1 1 3 0 357 349 347
1 1 2 2 347 357
1 1 2 2 349 357
1 1 2 0 350 347
1 1 3 0 360 350 347
1 1 2 2 347 360
1 1 2 2 350 360
1 1 2 0 349 348
1 1 3 0 363 349 348
1 1 2 2 348 363
1 1 2 2 349 363
1 1 2 0 350 348
1 1 3 0 366 350 348
1 1 2 2 348 366
1 1 2 2 350 366
1 1 2 0 350 349
1 1 3 0 369 350 349
1 1 2 2 349 369
1 1 2 2 350 369
1 1 2 0 25 2
1 1 3 0 372 25 2
1 1 2 2 2 372
1 1 2 2 25 372
1 1 2 0 26 3
1 1 3 0 375 26 3
1 1 2 2 3 375
1 1 2 2 26 375
1 1 2 0 27 4
1 1 3 0 378 27 4
1 1 2 2 4 378
1 1 2 2 27 378
1 1 2 0 28 5
1 1 3 0 381 28 5
1 1 2 2 5 381
1 1 2 2 28 381
1 1 2 0 48 2
1 1 3 0 384 48 2
1 1 2 2 2 384
1 1 2 2 48 384
1 1 2 0 49 3
1 1 3 0 387 49 3
1 1 2 2 3 387
1 1 2 2 49 387
1 1 2 0 50 4
1 1 3 0 390 50 4
1 1 2 2 4 390
1 1 2 2 50 390
1 1 2 0 51 5
1 1 3 0 393 51 5
1 1 2 2 5 393
1 1 2 2 51 393
1 1 2 0 71 2
1 1 3 0 396 71 2
1 1 2 2 2 396
1 1 2 2 71 396
1 1 2 0 72 3
1 1 3 0 399 72 3
1 1 2 2 3 399
1 1 2 2 72 399
1 1 2 0 73 4
1 1 3 0 402 73 4
1 1 2 2 4 402
1 1 2 2 73 402
1 1 2 0 74 5
1 1 3 0 405 74 5
1 1 2 2 5 405
1 1 2 2 74 405
1 1 2 0 94 2
1 1 3 0 408 94 2
1 1 2 2 2 408
1 1 2 2 94 408
1 1 2 0 95 3
1 1 3 0 411 95 3
1 1 2 2 3 411
1 1 2 2 95 411
1 1 2 0 96 4
1 1 3 0 414 96 4
1 1 2 2 4 414
1 1 2 2 96 414
1 1 2 0 97 5
1 1 3 0 417 97 5
1 1 2 2 5 417
1 1 2 2 97 417
1 1 2 0 117 2
1 1 3 0 420 117 2
1 1 2 2 2 420
1 1 2 2 117 420
1 1 2 0 118 3
1 1 3 0 423 118 3
1 1 2 2 3 423
1 1 2 2 118 423
1 1 2 0 119 4
1 1 3 0 426 119 4
1 1 2 2 4 426
1 1 2 2 119 426
1 1 2 0 120 5
1 1 3 0 429 120 5
1 1 2 2 5 429
1 1 2 2 120 429
1 1 2 0 186 2
1 1 3 0 432 186 2
1 1 2 2 2 432
1 1 2 2 186 432
1 1 2 0 187 3
1 1 3 0 435 187 3
1 1 2 2 3 435
1 1 2 2 187 435
1 1 2 0 188 4
1 1 3 0 438 188 4
1 1 2 2 4 438
1 1 2 2 188 438
1 1 2 0 189 5
1 1 3 0 441 189 5
1 1 2 2 5 441
1 1 2 2 189 441
1 1 2 0 278 2
1 1 3 0 444 278 2
1 1 2 2 2 444
1 1 2 2 278 444
1 1 2 0 279 3
1 1 3 0 447 279 3
1 1 2 2 3 447
1 1 2 2 279 447
1 1 2 0 280 4
1 1 3 0 450 280 4
1 1 2 2 4 450
1 1 2 2 280 450
1 1 2 0 281 5
1 1 3 0 453 281 5
1 1 2 2 5 453
1 1 2 2 281 453
1 1 2 0 48 25
1 1 3 0 456 48 25
1 1 2 2 25 456
1 1 2 2 48 456
1 1 2 0 49 26
1 1 3 0 459 49 26
1 1 2 2 26 459
1 1 2 2 49 459
1 1 2 0 50 27
1 1 3 0 462 50 27
1 1 2 2 27 462
1 1 2 2 50 462
1 1 2 0 51 28
1 1 3 0 465 51 28
1 1 2 2 28 465
1 1 2 2 51 465
1 1 2 0 71 25
1 1 3 0 468 71 25
1 1 2 2 25 468
1 1 2 2 71 468
1 1 2 0 72 26
1 1 3 0 471 72 26
1 1 2 2 26 471
1 1 2 2 72 471
1 1 2 0 73 27
1 1 3 0 474 73 27
1 1 2 2 27 474
1 1 2 2 73 474
1 1 2 0 74 28
1 1 3 0 477 74 28
1 1 2 2 28 477
1 1 2 2 74 477
1 1 2 0 94 25
1 1 3 0 480 94 25
1 1 2 2 25 480
1 1 2 2 94 480
1 1 2 0 95 26
1 1 3 0 483 95 26
1 1 2 2 26 483
1 1 2 2 95 483
1 1 2 0 96 27
1 1 3 0 486 96 27
1 1 2 2 27 486
1 1 2 2 96 486
1 1 2 0 97 28
1 1 3 0 489 97 28
1 1 2 2 28 489
1 1 2 2 97 489
1 1 2 0 117 25
1 1 3 0 492 117 25
1 1 2 2 25 492
1 1 2 2 117 492
1 1 2 0 118 26
1 1 3 0 495 118 26
1 1 2 2 26 495
1 1 2 2 118 495
1 1 2 0 119 27
1 1 3 0 498 119 27
1 1 2 2 27 498
1 1 2 2 119 498
1 1 2 0 120 28
1 1 3 0 501 120 28
1 1 2 2 28 501
1 1 2 2 120 501
1 1 2 0 209 25
1 1 3 0 504 209 25
1 1 2 2 25 504
1 1 2 2 209 504
1 1 2 0 210 26
1 1 3 0 507 210 26
1 1 2 2 26 507
1 1 2 2 210 507
1 1 2 0 211 27
1 1 3 0 510 211 27
1 1 2 2 27 510
1 1 2 2 211 510
1 1 2 0 212 28
1 1 3 0 513 212 28
1 1 2 2 28 513
1 1 2 2 212 513
1 1 2 0 301 25
1 1 3 0 516 301 25
1 1 2 2 25 516
1 1 2 2 301 516
1 1 2 0 302 26
1 1 3 0 519 302 26
1 1 2 2 26 519
1 1 2 2 302 519
1 1 2 0 303 27
1 1 3 0 522 303 27
1 1 2 2 27 522
1 1 2 2 303 522
1 1 2 0 304 28
1 1 3 0 525 304 28
1 1 2 2 28 525
1 1 2 2 304 525
1 1 2 0 71 48
1 1 3 0 528 71 48
1 1 2 2 48 528
1 1 2 2 71 528
1 1 2 0 72 49
1 1 3 0 531 72 49
1 1 2 2 49 531
1 1 2 2 72 531
1 1 2 0 73 50
1 1 3 0 534 73 50
1 1 2 2 50 534
1 1 2 2 73 534
1 1 2 0 74 51
1 1 3 0 537 74 51
1 1 2 2 51 537
1 1 2 2 74 537
1 1 2 0 140 48
1 1 3 0 540 140 48
1 1 2 2 48 540
1 1 2 2 140 540
1 1 2 0 141 49
1 1 3 0 543 141 49
1 1 2 2 49 543
1 1 2 2 141 543
1 1 2 0 142 50
1 1 3 0 546 142 50
1 1 2 2 50 546
1 1 2 2 142 546
1 1 2 0 143 51
1 1 3 0 549 143 51
1 1 2 2 51 549
1 1 2 2 143 549
1 1 2 0 163 48
1 1 3 0 552 163 48
1 1 2 2 48 552
1 1 2 2 163 552
1 1 2 0 164 49
1 1 3 0 555 164 49
1 1 2 2 49 555
1 1 2 2 164 555
1 1 2 0 165 50
1 1 3 0 558 165 50
1 1 2 2 50 558
1 1 2 2 165 558
1 1 2 0 166 51
1 1 3 0 561 166 51
1 1 2 2 51 561
1 1 2 2 166 561
1 1 2 0 232 48
1 1 3 0 564 232 48
1 1 2 2 48 564
1 1 2 2 232 564
1 1 2 0 233 49
1 1 3 0 567 233 49
1 1 2 2 49 567
1 1 2 2 233 567
1 1 2 0 234 50
1 1 3 0 570 234 50
1 1 2 2 50 570
1 1 2 2 234 570
1 1 2 0 235 51
1 1 3 0 573 235 51
1 1 2 2 51 573
1 1 2 2 235 573
1 1 2 0 324 48
1 1 3 0 576 324 48
1 1 2 2 48 576
1 1 2 2 324 576
1 1 2 0 325 49
1 1 3 0 579 325 49
1 1 2 2 49 579
1 1 2 2 325 579
1 1 2 0 326 50
1 1 3 0 582 326 50
1 1 2 2 50 582
1 1 2 2 326 582
1 1 2 0 327 51
1 1 3 0 585 327 51
1 1 2 2 51 585
1 1 2 2 327 585
1 1 2 0 140 71
1 1 3 0 588 140 71
1 1 2 2 71 588
1 1 2 2 140 588
1 1 2 0 141 72
1 1 3 0 591 141 72
1 1 2 2 72 591
1 1 2 2 141 591
1 1 2 0 142 73
1 1 3 0 594 142 73
1 1 2 2 73 594
1 1 2 2 142 594
1 1 2 0 143 74
1 1 3 0 597 143 74
1 1 2 2 74 597
1 1 2 2 143 597
1 1 2 0 163 71
1 1 3 0 600 163 71
1 1 2 2 71 600
1 1 2 2 163 600
1 1 2 0 164 72
1 1 3 0 603 164 72
1 1 2 2 72 603
1 1 2 2 164 603
1 1 2 0 165 73
1 1 3 0 606 165 73
1 1 2 2 73 606
1 1 2 2 165 606
1 1 2 0 166 74
1 1 3 0 609 166 74
1 1 2 2 74 609
1 1 2 2 166 609
1 1 2 0 255 71
1 1 3 0 612 255 71
1 1 2 2 71 612
1 1 2 2 255 612
1 1 2 0 256 72
1 1 3 0 615 256 72
1 1 2 2 72 615
1 1 2 2 256 615
1 1 2 0 257 73
1 1 3 0 618 257 73
1 1 2 2 73 618
1 1 2 2 257 618
1 1 2 0 258 74
1 1 3 0 621 258 74
1 1 2 2 74 621
1 1 2 2 258 621
1 1 2 0 347 71
1 1 3 0 624 347 71
1 1 2 2 71 624
1 1 2 2 347 624
1 1 2 0 348 72
1 1 3 0 627 348 72
1 1 2 2 72 627
1 1 2 2 348 627
1 1 2 0 349 73
1 1 3 0 630 349 73
1 1 2 2 73 630
1 1 2 2 349 630
1 1 2 0 350 74
1 1 3 0 633 350 74
1 1 2 2 74 633
1 1 2 2 350 633
1 1 2 0 117 94
1 1 3 0 636 117 94
1 1 2 2 94 636
1 1 2 2 117 636
1 1 2 0 118 95
1 1 3 0 639 118 95
1 1 2 2 95 639
1 1 2 2 118 639
1 1 2 0 119 96
1 1 3 0 642 119 96
1 1 2 2 96 642
1 1 2 2 119 642
1 1 2 0 120 97
1 1 3 0 645 120 97
1 1 2 2 97 645
1 1 2 2 120 645
1 1 2 0 140 94
1 1 3 0 648 140 94
1 1 2 2 94 648
1 1 2 2 140 648
1 1 2 0 141 95
1 1 3 0 651 141 95
1 1 2 2 95 651
1 1 2 2 141 651
1 1 2 0 142 96
1 1 3 0 654 142 96
1 1 2 2 96 654
1 1 2 2 142 654
1 1 2 0 143 97
1 1 3 0 657 143 97
1 1 2 2 97 657
1 1 2 2 143 657
1 1 2 0 163 94
1 1 3 0 660 163 94
1 1 2 2 94 660
1 1 2 2 163 660
1 1 2 0 164 95
1 1 3 0 663 164 95
1 1 2 2 95 663
1 1 2 2 164 663
1 1 2 0 165 96
1 1 3 0 666 165 96
1 1 2 2 96 666
1 1 2 2 165 666
1 1 2 0 166 97
1 1 3 0 669 166 97
1 1 2 2 97 669
1 1 2 2 166 669
1 1 2 0 186 94
1 1 3 0 672 186 94
1 1 2 2 94 672
1 1 2 2 186 672
1 1 2 0 187 95
1 1 3 0 675 187 95
1 1 2 2 95 675
1 1 2 2 187 675
1 1 2 0 188 96
1 1 3 0 678 188 96
1 1 2 2 96 678
1 1 2 2 188 678
1 1 2 0 189 97
1 1 3 0 681 189 97
1 1 2 2 97 681
1 1 2 2 189 681
1 1 2 0 278 94
1 1 3 0 684 278 94
1 1 2 2 94 684
1 1 2 2 278 684
1 1 2 0 279 95
1 1 3 0 687 279 95
1 1 2 2 95 687
1 1 2 2 279 687
1 1 2 0 280 96
1 1 3 0 690 280 96
1 1 2 2 96 690
1 1 2 2 280 690
1 1 2 0 281 97
1 1 3 0 693 281 97
1 1 2 2 97 693
1 1 2 2 281 693
1 1 2 0 140 117
1 1 3 0 696 140 117
1 1 2 2 117 696
1 1 2 2 140 696
1 1 2 0 141 118
1 1 3 0 699 141 118
1 1 2 2 118 699
1 1 2 2 141 699
1 1 2 0 142 119
1 1 3 0 702 142 119
1 1 2 2 119 702
1 1 2 2 142 702
1 1 2 0 143 120
1 1 3 0 705 143 120
1 1 2 2 120 705
1 1 2 2 143 705
1 1 2 0 163 117
1 1 3 0 708 163 117
1 1 2 2 117 708
1 1 2 2 163 708
1 1 2 0 164 118
1 1 3 0 711 164 118
1 1 2 2 118 711
1 1 2 2 164 711
1 1 2 0 165 119
1 1 3 0 714 165 119
1 1 2 2 119 714
1 1 2 2 165 714
1 1 2 0 166 120
1 1 3 0 717 166 120
1 1 2 2 120 717
1 1 2 2 166 717
1 1 2 0 209 117
1 1 3 0 720 209 117
1 1 2 2 117 720
1 1 2 2 209 720
1 1 2 0 210 118
1 1 3 0 723 210 118
1 1 2 2 118 723
1 1 2 2 210 723
1 1 2 0 211 119
1 1 3 0 726 211 119
1 1 2 2 119 726
1 1 2 2 211 726
1 1 2 0 212 120
1 1 3 0 729 212 120
1 1 2 2 120 729
1 1 2 2 212 729
1 1 2 0 301 117
1 1 3 0 732 301 117
1 1 2 2 117 732
1 1 2 2 301 732
1 1 2 0 302 118
1 1 3 0 735 302 118
1 1 2 2 118 735
1 1 2 2 302 735
1 1 2 0 303 119
1 1 3 0 738 303 119
1 1 2 2 119 738
1 1 2 2 303 738
1 1 2 0 304 120
1 1 3 0 741 304 120
1 1 2 2 120 741
1 1 2 2 304 741
1 1 2 0 163 140
1 1 3 0 744 163 140
1 1 2 2 140 744
1 1 2 2 163 744
1 1 2 0 164 141
1 1 3 0 747 164 141
1 1 2 2 141 747
1 1 2 2 164 747
1 1 2 0 165 142
1 1 3 0 750 165 142
1 1 2 2 142 750
1 1 2 2 165 750
1 1 2 0 166 143
1 1 3 0 753 166 143
1 1 2 2 143 753
1 1 2 2 166 753
1 1 2 0 232 140
1 1 3 0 756 232 140
1 1 2 2 140 756
1 1 2 2 232 756
1 1 2 0 233 141
1 1 3 0 759 233 141
1 1 2 2 141 759
1 1 2 2 233 759
1 1 2 0 234 142
1 1 3 0 762 234 142
1 1 2 2 142 762
1 1 2 2 234 762
1 1 2 0 235 143
1 1 3 0 765 235 143
1 1 2 2 143 765
1 1 2 2 235 765
1 1 2 0 324 140
1 1 3 0 768 324 140
1 1 2 2 140 768
1 1 2 2 324 768
1 1 2 0 325 141
1 1 3 0 771 325 141
1 1 2 2 141 771
1 1 2 2 325 771
1 1 2 0 326 142
1 1 3 0 774 326 142
1 1 2 2 142 774
1 1 2 2 326 774
1 1 2 0 327 143
1 1 3 0 777 327 143
1 1 2 2 143 777
1 1 2 2 327 777
1 1 2 0 255 163
1 1 3 0 780 255 163
1 1 2 2 163 780
1 1 2 2 255 780
1 1 2 0 256 164
1 1 3 0 783 256 164
1 1 2 2 164 783
1 1 2 2 256 783
1 1 2 0 257 165
1 1 3 0 786 257 165
1 1 2 2 165 786
1 1 2 2 257 786
1 1 2 0 258 166
1 1 3 0 789 258 166
1 1 2 2 166 789
1 1 2 2 258 789
1 1 2 0 347 163
1 1 3 0 792 347 163
1 1 2 2 163 792
1 1 2 2 347 792
1 1 2 0 348 164
1 1 3 0 795 348 164
1 1 2 2 164 795
1 1 2 2 348 795
1 1 2 0 349 165
1 1 3 0 798 349 165
1 1 2 2 165 798
1 1 2 2 349 798
1 1 2 0 350 166
1 1 3 0 801 350 166
1 1 2 2 166 801
1 1 2 2 350 801
1 1 2 0 209 186
1 1 3 0 804 209 186
1 1 2 2 186 804
1 1 2 2 209 804
1 1 2 0 210 187
1 1 3 0 807 210 187
1 1 2 2 187 807
1 1 2 2 210 807
1 1 2 0 211 188
1 1 3 0 810 211 188
1 1 2 2 188 810
1 1 2 2 211 810
1 1 2 0 212 189
1 1 3 0 813 212 189
1 1 2 2 189 813
1 1 2 2 212 813
1 1 2 0 232 186
1 1 3 0 816 232 186
1 1 2 2 186 816
1 1 2 2 232 816
1 1 2 0 233 187
1 1 3 0 819 233 187
1 1 2 2 187 819
1 1 2 2 233 819
1 1 2 0 234 188
1 1 3 0 822 234 188
1 1 2 2 188 822
1 1 2 2 234 822
1 1 2 0 235 189
1 1 3 0 825 235 189
1 1 2 2 189 825
1 1 2 2 235 825
1 1 2 0 255 186
1 1 3 0 828 255 186
1 1 2 2 186 828
1 1 2 2 255 828
1 1 2 0 256 187
1 1 3 0 831 256 187
1 1 2 2 187 831
1 1 2 2 256 831
1 1 2 0 257 188
1 1 3 0 834 257 188
1 1 2 2 188 834
1 1 2 2 257 834
1 1 2 0 258 189
1 1 3 0 837 258 189
1 1 2 2 189 837
1 1 2 2 258 837
1 1 2 0 278 186
1 1 3 0 840 278 186
1 1 2 2 186 840
1 1 2 2 278 840
1 1 2 0 279 187
1 1 3 0 843 279 187
1 1 2 2 187 843
1 1 2 2 279 843
1 1 2 0 280 188
1 1 3 0 846 280 188
1 1 2 2 188 846
1 1 2 2 280 846
1 1 2 0 281 189
1 1 3 0 849 281 189
1 1 2 2 189 849
1 1 2 2 281 849
1 1 2 0 301 186
1 1 3 0 852 301 186
1 1 2 2 186 852
1 1 2 2 301 852
1 1 2 0 302 187
1 1 3 0 855 302 187
1 1 2 2 187 855
1 1 2 2 302 855
1 1 2 0 303 188
1 1 3 0 858 303 188
1 1 2 2 188 858
1 1 2 2 303 858
1 1 2 0 304 189
1 1 3 0 861 304 189
1 1 2 2 189 861
1 1 2 2 304 861
1 1 2 0 232 209
1 1 3 0 864 232 209
1 1 2 2 209 864
1 1 2 2 232 864
1 1 2 0 233 210
1 1 3 0 867 233 210
1 1 2 2 210 867
1 1 2 2 233 867
1 1 2 0 234 211
1 1 3 0 870 234 211
1 1 2 2 211 870
1 1 2 2 234 870
1 1 2 0 235 212
1 1 3 0 873 235 212
1 1 2 2 212 873
1 1 2 2 235 873
1 1 2 0 255 209
1 1 3 0 876 255 209
1 1 2 2 209 876
1 1 2 2 255 876
1 1 2 0 256 210
1 1 3 0 879 256 210
1 1 2 2 210 879
1 1 2 2 256 879
1 1 2 0 257 211
1 1 3 0 882 257 211
1 1 2 2 211 882
1 1 2 2 257 882
1 1 2 0 258 212
1 1 3 0 885 258 212
1 1 2 2 212 885
1 1 2 2 258 885
1 1 2 0 278 209
1 1 3 0 888 278 209
1 1 2 2 209 888
1 1 2 2 278 888
1 1 2 0 279 210
1 1 3 0 891 279 210
1 1 2 2 210 891
1 1 2 2 279 891
1 1 2 0 280 211
1 1 3 0 894 280 211
1 1 2 2 211 894
1 1 2 2 280 894
1 1 2 0 281 212
1 1 3 0 897 281 212
1 1 2 2 212 897
1 1 2 2 281 897
1 1 2 0 301 209
1 1 3 0 900 301 209
1 1 2 2 209 900
1 1 2 2 301 900
1 1 2 0 302 210
1 1 3 0 903 302 210
1 1 2 2 210 903
1 1 2 2 302 903
1 1 2 0 303 211
1 1 3 0 906 303 211
1 1 2 2 211 906
1 1 2 2 303 906
1 1 2 0 304 212
1 1 3 0 909 304 212
1 1 2 2 212 909
1 1 2 2 304 909
1 1 2 0 255 232
1 1 3 0 912 255 232
1 1 2 2 232 912
1 1 2 2 255 912
1 1 2 0 256 233
1 1 3 0 915 256 233
1 1 2 2 233 915
1 1 2 2 256 915
1 1 2 0 257 234
1 1 3 0 918 257 234
1 1 2 2 234 918
1 1 2 2 257 918
1 1 2 0 258 235
1 1 3 0 921 258 235
1 1 2 2 235 921
1 1 2 2 258 921
1 1 2 0 324 232
1 1 3 0 924 324 232
1 1 2 2 232 924
1 1 2 2 324 924
1 1 2 0 325 233
1 1 3 0 927 325 233
1 1 2 2 233 927
1 1 2 2 325 927
1 1 2 0 326 234
1 1 3 0 930 326 234
1 1 2 2 234 930
1 1 2 2 326 930
1 1 2 0 327 235
1 1 3 0 933 327 235
1 1 2 2 235 933
1 1 2 2 327 933
1 1 2 0 347 232
1 1 3 0 936 347 232
1 1 2 2 232 936
1 1 2 2 347 936
1 1 2 0 348 233
1 1 3 0 939 348 233
1 1 2 2 233 939
1 1 2 2 348 939
1 1 2 0 349 234
1 1 3 0 942 349 234
1 1 2 2 234 942
1 1 2 2 349 942
1 1 2 0 350 235
1 1 3 0 945 350 235
1 1 2 2 235 945
1 1 2 2 350 945
1 1 2 0 324 255
1 1 3 0 948 324 255
1 1 2 2 255 948
1 1 2 2 324 948
1 1 2 0 325 256
1 1 3 0 951 325 256
1 1 2 2 256 951
1 1 2 2 325 951
1 1 2 0 326 257
1 1 3 0 954 326 257
1 1 2 2 257 954
1 1 2 2 326 954
1 1 2 0 327 258
1 1 3 0 957 327 258
1 1 2 2 258 957
1 1 2 2 327 957
1 1 2 0 347 255
1 1 3 0 960 347 255
1 1 2 2 255 960
1 1 2 2 347 960
1 1 2 0 348 256
1 1 3 0 963 348 256
1 1 2 2 256 963
1 1 2 2 348 963
1 1 2 0 349 257
1 1 3 0 966 349 257
1 1 2 2 257 966
1 1 2 2 349 966
1 1 2 0 350 258
1 1 3 0 969 350 258
1 1 2 2 258 969
1 1 2 2 350 969
1 1 2 0 301 278
1 1 3 0 972 301 278
1 1 2 2 278 972
1 1 2 2 301 972
1 1 2 0 302 279
1 1 3 0 975 302 279
1 1 2 2 279 975
1 1 2 2 302 975
1 1 2 0 303 280
1 1 3 0 978 303 280
1 1 2 2 280 978
1 1 2 2 303 978
1 1 2 0 304 281
1 1 3 0 981 304 281
1 1 2 2 281 981
1 1 2 2 304 981
1 1 2 0 324 278
1 1 3 0 984 324 278
1 1 2 2 278 984
1 1 2 2 324 984
1 1 2 0 325 279
1 1 3 0 987 325 279
1 1 2 2 279 987
1 1 2 2 325 987
1 1 2 0 326 280
1 1 3 0 990 326 280
1 1 2 2 280 990
1 1 2 2 326 990
1 1 2 0 327 281
1 1 3 0 993 327 281
1 1 2 2 281 993
1 1 2 2 327 993
1 1 2 0 347 278
1 1 3 0 996 347 278
1 1 2 2 278 996
1 1 2 2 347 996
1 1 2 0 348 279
1 1 3 0 999 348 279
1 1 2 2 279 999
1 1 2 2 348 999
1 1 2 0 349 280
1 1 3 0 1002 349 280
1 1 2 2 280 1002
1 1 2 2 349 1002
1 1 2 0 350 281
1 1 3 0 1005 350 281
1 1 2 2 281 1005
1 1 2 2 350 1005
1 1 2 0 324 301
1 1 3 0 1008 324 301
1 1 2 2 301 1008
1 1 2 2 324 1008
1 1 2 0 325 302
1 1 3 0 1011 325 302
1 1 2 2 302 1011
1 1 2 2 325 1011
1 1 2 0 326 303
1 1 3 0 1014 326 303
1 1 2 2 303 1014
1 1 2 2 326 1014
1 1 2 0 327 304
1 1 3 0 1017 327 304
1 1 2 2 304 1017
1 1 2 2 327 1017
1 1 2 0 347 301
1 1 3 0 1020 347 301
1 1 2 2 301 1020
1 1 2 2 347 1020
1 1 2 0 348 302
1 1 3 0 1023 348 302
1 1 2 2 302 1023
1 1 2 2 348 1023
1 1 2 0 349 303
1 1 3 0 1026 349 303
1 1 2 2 303 1026
1 1 2 2 349 1026
1 1 2 0 350 304
1 1 3 0 1029 350 304
1 1 2 2 304 1029
1 1 2 2 350 1029
1 1 2 0 347 324
1 1 3 0 1032 347 324
1 1 2 2 324 1032
1 1 2 2 347 1032
1 1 2 0 348 325
1 1 3 0 1035 348 325
1 1 2 2 325 1035
1 1 2 2 348 1035
1 1 2 0 349 326
1 1 3 0 1038 349 326
1 1 2 2 326 1038
1 1 2 2 349 1038
1 1 2 0 350 327
1 1 3 0 1041 350 327
1 1 2 2 327 1041
1 1 2 2 350 1041
3 400 2 3 4 5 6 9 12 15 18 21 24 25 26 27 28 29 32 35 38 41 44 47 48 49 50 51 52 55 58 61 64 67 70 71 72 73 74 75 78 81 84 87 90 93 94 95 96 97 98 101 104 107 110 113 116 117 118 119 120 121 124 127 130 133 136 139 140 141 142 143 144 147 150 153 156 159 162 163 164 165 166 167 170 173 176 179 182 185 186 187 188 189 190 193 196 199 202 205 208 209 210 211 212 213 216 219 222 225 228 231 232 233 234 235 236 239 242 245 248 251 254 255 256 257 258 259 262 265 268 271 274 277 278 279 280 281 282 285 288 291 294 297 300 301 302 303 304 305 308 311 314 317 320 323 324 325 326 327 328 331 334 337 340 343 346 347 348 349 350 351 354 357 360 363 366 369 372 375 378 381 384 387 390 393 396 399 402 405 408 411 414 417 420 423 426 429 432 435 438 441 444 447 450 453 456 459 462 465 468 471 474 477 480 483 486 489 492 495 498 501 504 507 510 513 516 519 522 525 528 531 534 537 540 543 546 549 552 555 558 561 564 567 570 573 576 579 582 585 588 591 594 597 600 603 606 609 612 615 618 621 624 627 630 633 636 639 642 645 648 651 654 657 660 663 666 669 672 675 678 681 684 687 690 693 696 699 702 705 708 711 714 717 720 723 726 729 732 735 738 741 744 747 750 753 756 759 762 765 768 771 774 777 780 783 786 789 792 795 798 801 804 807 810 813 816 819 822 825 828 831 834 837 840 843 846 849 852 855 858 861 864 867 870 873 876 879 882 885 888 891 894 897 900 903 906 909 912 915 918 921 924 927 930 933 936 939 942 945 948 951 954 957 960 963 966 969 972 975 978 981 984 987 990 993 996 999 1002 1005 1008 1011 1014 1017 1020 1023 1026 1029 1032 1035 1038 1041 0 0
0
2 value(1,1,1)
3 value(1,1,2)
4 value(1,1,3)
5 value(1,1,4)
25 value(1,2,1)
26 value(1,2,2)
27 value(1,2,3)
28 value(1,2,4)
48 value(1,3,1)
49 value(1,3,2)
50 value(1,3,3)
51 value(1,3,4)
71 value(1,4,1)
72 value(1,4,2)
73 value(1,4,3)
74 value(1,4,4)
94 value(2,1,1)
95 value(2,1,2)
96 value(2,1,3)
97 value(2,1,4)
117 value(2,2,1)
118 value(2,2,2)
119 value(2,2,3)
120 value(2,2,4)
140 value(2,3,1)
141 value(2,3,2)
142 value(2,3,3)
143 value(2,3,4)
163 value(2,4,1)
164 value(2,4,2)
165 value(2,4,3)
166 value(2,4,4)
186 value(3,1,1)
187 value(3,1,2)
188 value(3,1,3)
189 value(3,1,4)
209 value(3,2,1)
210 value(3,2,2)
211 value(3,2,3)
212 value(3,2,4)
232 value(3,3,1)
233 value(3,3,2)
234 value(3,3,3)
235 value(3,3,4)
255 value(3,4,1)
256 value(3,4,2)
257 value(3,4,3)
258 value(3,4,4)
278 value(4,1,1)
279 value(4,1,2)
280 value(4,1,3)
281 value(4,1,4)
301 value(4,2,1)
302 value(4,2,2)
303 value(4,2,3)
304 value(4,2,4)
324 value(4,3,1)
325 value(4,3,2)
326 value(4,3,3)
327 value(4,3,4)
347 value(4,4,1)
348 value(4,4,2)
349 value(4,4,3)
350 value(4,4,4)
0
B+
0
B-
1
0
1
